
  12   12
  10   10   10   10   10   10   10   10   10   10   10   10

   0   0   0   0   0   0   0   0   0   0   0   0   0   6 2 3 4 5 6 11 
   7   0   0   0   0   1   5   1   0   0   0   0   1   3 10 9 7 
   1   0   0   1   0   0   0   5   0   0   0   0   8   2 9 8 
  10   0   1   0   0   0   0   9   0   0   0   0   7   1 7 
   4   1   0   0   0   6   0   0   1   0   0   0   0   1 7 
   3   0   0   0   0   0   0   0   9   0   1   0   4   1 7 
   9   4   0  10   1   7   0   0   0   1   0   0   0   1 8 
   5   6   0   0   0   7   0   0   0   0   9   0   0   1 12
   9   8   9   0   9   4   0   0   0   5   0   0   0   1 12
   4   6   0   4   0   0   0   0   0   9   0   1   0   1 12
   7   0   0   0   0   0   0   5   0   0   0   9   0   1 12
   0   0   0   0   0   0   0   0   0   0   0   0   0   0 
